src/in/semantic_loss_constraints/constraints_as_propositional_logic/still_life_corners.txt
shape [4]
Implies(~X0, Nand(X1, X2, X3))
Implies(X0, Or(And(X1, X2, X3), And(~X1, X2, X3), And(X1, ~X2, X3), And(X1, X2, ~X3)))